32	0

0	1	2
1	1	3
6	1	4
8	1	5
1	1	6
10	1	7
6	1	8
1	1	9
8	1	10
2	1	11
8	1	12
7	1	13
3	1	14
1	1	15
1	1	16
1	1	17
10	1	18
3	1	19
3	2	20	21
5	1	22
1	1	22
1	1	23
1	1	24
7	1	25
10	1	26
3	1	27
6	1	28
3	1	29
5	1	30
1	1	31
7	1	32
0	0
